c preprocessed version of BN_88, 38 vertices, 394 edges
p td 38 394
1 0
13 0
6 0
9 0
10 0
12 0
21 0
2 1
6 1
12 1
21 1
3 2
2 4
3 4
5 3
5 6
5 7
5 8
5 11
5 12
5 15
5 18
5 16
5 22
5 20
5 17
5 19
5 21
7 6
11 6
12 6
21 6
7 8
10 7
7 12
7 11
17 7
9 8
11 8
17 8
22 8
10 9
9 13
14 9
17 9
22 9
18 9
10 11
10 13
10 12
11 12
17 11
12 13
21 12
22 12
18 12
14 13
18 13
15 14
21 14
20 14
16 15
21 15
22 15
20 15
17 16
16 18
16 20
16 22
16 19
16 21
17 18
17 20
17 22
17 21
17 19
19 18
21 18
22 18
18 20
19 20
19 22
19 21
21 20
22 20
21 22
23 3
23 4
23 29
23 13
23 5
23 7
23 11
23 12
23 18
23 24
23 37
23 36
23 16
23 30
23 22
23 34
23 20
23 17
23 19
23 21
23 26
23 27
23 28
23 31
23 32
23 33
23 35
23 25
24 5
24 17
24 16
24 19
24 21
24 29
24 22
24 18
24 20
24 36
24 3
24 37
24 30
24 34
24 15
24 25
24 27
24 28
24 31
24 32
24 33
24 35
24 26
25 37
25 7
25 11
25 34
25 30
25 26
25 27
25 28
25 31
25 32
25 33
25 35
25 17
25 16
25 19
25 21
25 29
25 22
25 36
26 37
26 0
26 2
26 7
26 8
26 9
26 10
26 11
26 12
26 13
26 34
26 30
26 15
26 27
26 28
26 31
26 32
26 33
26 35
26 5
26 17
26 16
26 19
26 21
26 29
26 22
26 18
26 20
26 36
27 37
27 2
27 3
27 4
27 7
27 8
27 10
27 11
27 34
27 30
27 28
27 31
27 32
27 33
27 35
27 5
27 17
27 16
27 19
27 21
27 29
27 36
28 37
28 1
28 2
28 3
28 4
28 8
28 9
28 10
28 34
28 30
28 15
28 32
28 33
28 35
28 31
28 17
28 16
28 19
28 21
28 29
28 22
28 20
28 36
29 37
29 5
29 17
29 16
29 19
29 21
29 13
29 18
29 36
29 30
29 22
29 34
29 20
29 31
29 32
29 33
29 35
30 37
30 7
30 8
30 9
30 10
30 11
30 12
30 34
30 15
30 31
30 32
30 33
30 35
30 16
30 21
30 22
30 18
30 20
30 36
31 37
31 7
31 8
31 10
31 11
31 34
31 32
31 33
31 35
31 5
31 17
31 16
31 19
31 21
31 36
32 37
32 0
32 1
32 6
32 7
32 8
32 9
32 11
32 12
32 34
32 15
32 33
32 35
32 5
32 17
32 16
32 19
32 21
32 22
32 18
32 20
32 36
33 37
33 0
33 7
33 8
33 9
33 10
33 11
33 12
33 13
33 14
33 34
33 15
33 35
33 5
33 17
33 16
33 19
33 21
33 22
33 18
33 20
33 36
34 37
34 0
34 7
34 8
34 9
34 10
34 11
34 12
34 13
34 14
34 15
34 35
34 5
34 17
34 16
34 21
34 22
34 18
34 20
34 36
35 37
35 7
35 8
35 10
35 11
35 12
35 14
35 15
35 5
35 17
35 16
35 19
35 21
35 22
35 20
35 36
36 37
36 5
36 17
36 16
36 19
36 21
36 22
36 18
36 20
36 0
36 7
36 11
36 13
36 14
36 15
37 0
37 1
37 4
37 6
37 7
37 11
37 10
37 9
37 13
37 12
37 14
37 15
37 5
37 16
37 21
37 22
37 18
37 20
